projected/problems_b25_r0_d7_m100_s666/_DIMACS/b25_d7_r0_s666_011.cnf
p cnf 191 275 25
c p show 1 2 3 4 5 6 7 8 9 10 11 12 13 14 15 16 17 18 19 20 21 22 23 24 25
-26 21 17 0
-27 23 0
-27 3 0
-28 27 26 0
-29 -23 23 0
-30 -11 0
-30 6 0
-31 -6 0
-31 11 0
-32 31 30 0
-33 32 0
-33 29 0
-34 33 28 0
-35 13 0
-35 10 0
-36 -13 0
-36 7 0
-37 36 0
-37 35 0
-38 -6 0
-38 -1 0
-39 10 -22 0
-40 39 0
-40 38 0
-41 40 0
-41 37 0
-42 6 1 0
-43 -10 0
-43 22 0
-44 43 42 0
-45 -13 -10 0
-46 13 -7 0
-47 46 45 0
-48 47 0
-48 44 0
-49 48 41 0
-50 49 0
-50 34 0
-51 4 -22 0
-52 -7 -15 0
-53 52 0
-53 51 0
-54 -1 -15 0
-55 -17 0
-55 25 0
-56 -25 0
-56 17 0
-57 56 55 0
-58 57 0
-58 54 0
-59 58 53 0
-60 -2 0
-60 15 0
-61 -15 0
-61 2 0
-62 61 60 0
-63 -7 0
-63 1 0
-64 63 0
-64 62 0
-65 -3 11 0
-66 2 0
-66 4 0
-67 66 0
-67 65 0
-68 67 0
-68 64 0
-69 68 59 0
-70 69 50 0
-71 -16 10 0
-72 2 0
-72 -21 0
-73 72 71 0
-74 21 5 0
-75 -16 0
-75 -9 0
-76 75 0
-76 74 0
-77 76 73 0
-78 -3 -9 0
-79 -5 0
-79 18 0
-80 79 0
-80 78 0
-81 -15 -7 0
-82 -10 0
-82 -24 0
-83 82 0
-83 81 0
-84 83 80 0
-85 84 77 0
-86 -5 0
-86 -21 0
-87 -18 -23 0
-88 87 86 0
-89 4 0
-89 -4 0
-90 -22 -4 0
-91 90 89 0
-92 91 88 0
-93 -19 7 0
-94 -21 0
-94 19 0
-95 94 0
-95 93 0
-96 -5 0
-96 7 0
-97 -20 20 0
-98 97 0
-98 96 0
-99 98 0
-99 95 0
-100 99 0
-100 92 0
-101 100 0
-101 85 0
-102 101 70 0
-103 -11 0
-103 10 0
-104 16 0
-104 -24 0
-105 104 0
-105 103 0
-106 5 0
-106 8 0
-107 17 0
-108 107 106 0
-109 108 105 0
-110 15 0
-111 22 0
-111 6 0
-112 -6 0
-112 -22 0
-113 112 111 0
-114 113 0
-114 110 0
-115 2 12 0
-116 17 0
-116 14 0
-117 116 0
-117 115 0
-118 117 0
-118 114 0
-119 -2 0
-119 -12 0
-120 -17 -14 0
-121 120 119 0
-122 -15 0
-123 -22 -6 0
-124 6 22 0
-125 124 0
-125 123 0
-126 125 122 0
-127 126 0
-127 121 0
-128 127 118 0
-129 128 109 0
-130 8 25 0
-131 -25 -8 0
-132 131 0
-132 130 0
-133 4 19 0
-134 133 132 0
-135 24 0
-135 12 0
-136 15 0
-136 8 0
-137 136 135 0
-138 137 0
-138 134 0
-139 -14 0
-139 -20 0
-140 12 -17 0
-141 140 139 0
-142 13 0
-142 -17 0
-143 -3 -7 0
-144 143 142 0
-145 144 141 0
-146 145 0
-146 138 0
-147 146 129 0
-148 12 0
-148 5 0
-149 -24 -1 0
-150 149 148 0
-151 -20 0
-151 -16 0
-152 5 24 0
-153 152 151 0
-154 153 150 0
-155 -7 25 0
-156 -23 0
-156 3 0
-157 156 0
-157 155 0
-158 23 -5 0
-159 15 0
-159 -5 0
-160 159 0
-160 158 0
-161 160 157 0
-162 161 0
-162 154 0
-163 -14 2 0
-164 -9 4 0
-165 164 163 0
-166 -9 0
-166 21 0
-167 14 0
-167 -19 0
-168 167 166 0
-169 168 0
-169 165 0
-170 9 -21 0
-171 -14 19 0
-172 171 0
-172 170 0
-173 14 0
-173 -2 0
-174 9 0
-174 -4 0
-175 174 0
-175 173 0
-176 175 0
-176 172 0
-177 176 169 0
-178 9 24 0
-179 -9 0
-179 -25 0
-180 179 178 0
-181 9 25 0
-182 -9 0
-182 -24 0
-183 182 181 0
-184 183 0
-184 180 0
-185 19 0
-185 -23 0
-186 21 0
-186 12 0
-187 186 185 0
-188 187 184 0
-189 188 177 0
-190 189 162 0
-191 190 0
-191 147 0
191 102 0
-42 -38 0
-38 -42 0
-39 -43 0
-40 -44 0
-35 -45 0
-45 -35 0
-46 -36 0
-47 -37 0
-119 -115 0
-115 -119 0
-120 -116 0
-116 -120 0
-117 -121 0
-110 -122 0
-122 -110 0
-125 -113 0
-126 -114 0
-166 -170 0
-170 -166 0
-171 -167 0
-172 -168 0
-168 -172 0
-173 -163 0
-174 -164 0
-175 -165 0
-181 -179 0
-178 -182 0
