projected/problems_b25_r0_d7_m100_s666/b25_d7_r0_s666_011.smt2
(set-logic QF_UF)
(declare-fun A0 () Bool)
(declare-fun A1 () Bool)
(declare-fun A2 () Bool)
(declare-fun A3 () Bool)
(declare-fun A4 () Bool)
(declare-fun A5 () Bool)
(declare-fun A6 () Bool)
(declare-fun A7 () Bool)
(declare-fun A8 () Bool)
(declare-fun A9 () Bool)
(declare-fun A10 () Bool)
(declare-fun A11 () Bool)
(declare-fun A12 () Bool)
(declare-fun A13 () Bool)
(declare-fun A14 () Bool)
(declare-fun A15 () Bool)
(declare-fun A16 () Bool)
(declare-fun A17 () Bool)
(declare-fun A18 () Bool)
(declare-fun A19 () Bool)
(declare-fun A20 () Bool)
(declare-fun A21 () Bool)
(declare-fun A22 () Bool)
(declare-fun A23 () Bool)
(declare-fun A24 () Bool)
(assert (let ((.def_0 (or A20 A16))) (let ((.def_1 (and A22 A2))) (let ((.def_2 (or .def_1 .def_0))) (let ((.def_3 (not A22))) (let ((.def_4 (and A22 .def_3))) (let ((.def_5 (not A10))) (let ((.def_6 (not A5))) (let ((.def_7 (= .def_6 .def_5))) (let ((.def_8 (or .def_7 .def_4))) (let ((.def_9 (not .def_8))) (let ((.def_10 (or .def_9 .def_2))) (let ((.def_11 (not .def_10))) (let ((.def_12 (or A5 A0))) (let ((.def_13 (not .def_12))) (let ((.def_14 (not A21))) (let ((.def_15 (or A9 .def_14))) (let ((.def_16 (and .def_15 .def_13))) (let ((.def_17 (and A12 A9))) (let ((.def_18 (not .def_17))) (let ((.def_19 (not A6))) (let ((.def_20 (or A12 .def_19))) (let ((.def_21 (or .def_20 .def_18))) (let ((.def_22 (= .def_21 .def_16))) (let ((.def_23 (or .def_22 .def_11))) (let ((.def_24 (not A3))) (let ((.def_25 (and .def_24 A21))) (let ((.def_26 (not A14))) (let ((.def_27 (or .def_19 .def_26))) (let ((.def_28 (not .def_27))) (let ((.def_29 (or .def_28 .def_25))) (let ((.def_30 (not .def_29))) (let ((.def_31 (and A0 A14))) (let ((.def_32 (not .def_31))) (let ((.def_33 (not A16))) (let ((.def_34 (not A24))) (let ((.def_35 (= .def_34 .def_33))) (let ((.def_36 (not .def_35))) (let ((.def_37 (and .def_36 .def_32))) (let ((.def_38 (or .def_37 .def_30))) (let ((.def_39 (not .def_38))) (let ((.def_40 (not A1))) (let ((.def_41 (= .def_26 .def_40))) (let ((.def_42 (not .def_41))) (let ((.def_43 (not A0))) (let ((.def_44 (or A6 .def_43))) (let ((.def_45 (not .def_44))) (let ((.def_46 (and .def_45 .def_42))) (let ((.def_47 (not .def_46))) (let ((.def_48 (not A2))) (let ((.def_49 (or .def_48 A10))) (let ((.def_50 (and A1 A3))) (let ((.def_51 (and .def_50 .def_49))) (let ((.def_52 (not .def_51))) (let ((.def_53 (or .def_52 .def_47))) (let ((.def_54 (and .def_53 .def_39))) (let ((.def_55 (and .def_54 .def_23))) (let ((.def_56 (not .def_55))) (let ((.def_57 (not A15))) (let ((.def_58 (or .def_57 A9))) (let ((.def_59 (not A20))) (let ((.def_60 (and A1 .def_59))) (let ((.def_61 (or .def_60 .def_58))) (let ((.def_62 (not .def_61))) (let ((.def_63 (not A4))) (let ((.def_64 (and .def_59 .def_63))) (let ((.def_65 (not .def_64))) (let ((.def_66 (not A8))) (let ((.def_67 (and .def_57 .def_66))) (let ((.def_68 (and .def_67 .def_65))) (let ((.def_69 (not .def_68))) (let ((.def_70 (and .def_69 .def_62))) (let ((.def_71 (not .def_70))) (let ((.def_72 (and A2 A8))) (let ((.def_73 (not .def_72))) (let ((.def_74 (not A17))) (let ((.def_75 (or A4 .def_74))) (let ((.def_76 (not .def_75))) (let ((.def_77 (and .def_76 .def_73))) (let ((.def_78 (or .def_26 .def_19))) (let ((.def_79 (or A9 A23))) (let ((.def_80 (not .def_79))) (let ((.def_81 (and .def_80 .def_78))) (let ((.def_82 (or .def_81 .def_77))) (let ((.def_83 (or .def_82 .def_71))) (let ((.def_84 (or A4 A20))) (let ((.def_85 (not .def_84))) (let ((.def_86 (or .def_74 .def_3))) (let ((.def_87 (or .def_86 .def_85))) (let ((.def_88 (and A3 .def_24))) (let ((.def_89 (or .def_14 .def_24))) (let ((.def_90 (or .def_89 .def_88))) (let ((.def_91 (or .def_90 .def_87))) (let ((.def_92 (not .def_91))) (let ((.def_93 (not A18))) (let ((.def_94 (or .def_93 A6))) (let ((.def_95 (and .def_59 A18))) (let ((.def_96 (and .def_95 .def_94))) (let ((.def_97 (and .def_63 A6))) (let ((.def_98 (not A19))) (let ((.def_99 (and A19 .def_98))) (let ((.def_100 (not .def_99))) (let ((.def_101 (and .def_100 .def_97))) (let ((.def_102 (and .def_101 .def_96))) (let ((.def_103 (not .def_102))) (let ((.def_104 (or .def_103 .def_92))) (let ((.def_105 (not .def_104))) (let ((.def_106 (and .def_105 .def_83))) (let ((.def_107 (or .def_106 .def_56))) (let ((.def_108 (not .def_107))) (let ((.def_109 (not A9))) (let ((.def_110 (or A10 .def_109))) (let ((.def_111 (not .def_110))) (let ((.def_112 (not A23))) (let ((.def_113 (and A15 .def_112))) (let ((.def_114 (and .def_113 .def_111))) (let ((.def_115 (and A4 A7))) (let ((.def_116 (not .def_115))) (let ((.def_117 (or A16 A16))) (let ((.def_118 (not .def_117))) (let ((.def_119 (and .def_118 .def_116))) (let ((.def_120 (not .def_119))) (let ((.def_121 (or .def_120 .def_114))) (let ((.def_122 (not .def_121))) (let ((.def_123 (not A11))) (let ((.def_124 (and .def_40 .def_123))) (let ((.def_125 (not .def_124))) (let ((.def_126 (not A13))) (let ((.def_127 (or .def_33 .def_126))) (let ((.def_128 (not .def_127))) (let ((.def_129 (and .def_128 .def_125))) (let ((.def_130 (and A14 A14))) (let ((.def_131 (not .def_130))) (let ((.def_132 (= .def_6 A21))) (let ((.def_133 (or .def_132 .def_131))) (let ((.def_134 (= .def_133 .def_129))) (let ((.def_135 (and .def_134 .def_122))) (let ((.def_136 (not A7))) (let ((.def_137 (= A24 .def_136))) (let ((.def_138 (or A3 A18))) (let ((.def_139 (or .def_138 .def_137))) (let ((.def_140 (not .def_139))) (let ((.def_141 (or .def_112 .def_123))) (let ((.def_142 (and A14 A7))) (let ((.def_143 (not .def_142))) (let ((.def_144 (and .def_143 .def_141))) (let ((.def_145 (or .def_144 .def_140))) (let ((.def_146 (and .def_126 .def_98))) (let ((.def_147 (or A11 .def_33))) (let ((.def_148 (or .def_147 .def_146))) (let ((.def_149 (not A12))) (let ((.def_150 (or .def_149 A16))) (let ((.def_151 (not .def_150))) (let ((.def_152 (and A2 A6))) (let ((.def_153 (not .def_152))) (let ((.def_154 (or .def_153 .def_151))) (let ((.def_155 (or .def_154 .def_148))) (let ((.def_156 (not .def_155))) (let ((.def_157 (or .def_156 .def_145))) (let ((.def_158 (and .def_157 .def_135))) (let ((.def_159 (not .def_158))) (let ((.def_160 (or .def_123 .def_63))) (let ((.def_161 (not .def_160))) (let ((.def_162 (and A23 A0))) (let ((.def_163 (not .def_162))) (let ((.def_164 (or .def_163 .def_161))) (let ((.def_165 (not .def_164))) (let ((.def_166 (or A19 A15))) (let ((.def_167 (and .def_63 .def_112))) (let ((.def_168 (and .def_167 .def_166))) (let ((.def_169 (and .def_168 .def_165))) (let ((.def_170 (not .def_169))) (let ((.def_171 (or .def_19 A24))) (let ((.def_172 (and .def_3 A2))) (let ((.def_173 (and .def_172 .def_171))) (let ((.def_174 (or A22 .def_63))) (let ((.def_175 (and A14 .def_63))) (let ((.def_176 (and .def_175 .def_174))) (let ((.def_177 (or .def_176 .def_173))) (let ((.def_178 (and .def_177 .def_170))) (let ((.def_179 (not .def_178))) (let ((.def_180 (and .def_66 A20))) (let ((.def_181 (not .def_180))) (let ((.def_182 (or .def_126 A18))) (let ((.def_183 (and .def_182 .def_181))) (let ((.def_184 (not .def_183))) (let ((.def_185 (and A13 .def_40))) (let ((.def_186 (and A8 .def_24))) (let ((.def_187 (and .def_186 .def_185))) (let ((.def_188 (= .def_187 .def_184))) (let ((.def_189 (or A8 A24))) (let ((.def_190 (or A8 A23))) (let ((.def_191 (= .def_190 .def_189))) (let ((.def_192 (and A18 .def_3))) (let ((.def_193 (not .def_192))) (let ((.def_194 (and A20 A11))) (let ((.def_195 (not .def_194))) (let ((.def_196 (and .def_195 .def_193))) (let ((.def_197 (not .def_196))) (let ((.def_198 (or .def_197 .def_191))) (let ((.def_199 (not .def_198))) (let ((.def_200 (and .def_199 .def_188))) (let ((.def_201 (and .def_200 .def_179))) (let ((.def_202 (not .def_201))) (let ((.def_203 (and .def_202 .def_159))) (let ((.def_204 (not .def_203))) (let ((.def_205 (and .def_204 .def_108))) (let ((.def_206 (not .def_205))) .def_206))))))))))))))))))))))))))))))))))))))))))))))))))))))))))))))))))))))))))))))))))))))))))))))))))))))))))))))))))))))))))))))))))))))))))))))))))))))))))))))))))))))))))))))))))))))))))))))))))))))))))))))))
(check-sat)
